\* Source Pyomo model name=MASTER *\

max 
x1:
+0.20000000000000001 x38
+0.20000000000000001 x39
+0.20000000000000001 x52
+0.20000000000000001 x53
+0.20000000000000001 x66
+0.20000000000000001 x67
+0.20000000000000001 x80
+0.20000000000000001 x81
+0.20000000000000001 x94
+0.20000000000000001 x95

s.t.

c_e_x2_:
+1 x22
-1 x73
= 0

c_e_x3_:
+1 x22
-1 x59
= 0

c_e_x4_:
+1 x22
-1 x45
= 0

c_e_x5_:
+1 x22
-1 x31
= 0

c_e_x6_:
+1 x22
-1 x87
= 0

c_e_x7_:
+1 x23
-1 x74
= 0

c_e_x8_:
+1 x23
-1 x60
= 0

c_e_x9_:
+1 x23
-1 x46
= 0

c_e_x10_:
+1 x23
-1 x32
= 0

c_e_x11_:
+1 x23
-1 x88
= 0

c_e_x12_:
+1 x24
-1 x75
= 0

c_e_x13_:
+1 x24
-1 x61
= 0

c_e_x14_:
+1 x24
-1 x47
= 0

c_e_x15_:
+1 x24
-1 x33
= 0

c_e_x16_:
+1 x24
-1 x89
= 0

c_e_x17_:
+1 x25
-1 x76
= 0

c_e_x18_:
+1 x25
-1 x62
= 0

c_e_x19_:
+1 x25
-1 x48
= 0

c_e_x20_:
+1 x25
-1 x34
= 0

c_e_x21_:
+1 x25
-1 x90
= 0

c_e_x26_:
-1 x31
+1 x33
+1 x35
= 0

c_e_x27_:
-1 x32
+1 x34
+1 x36
= 0

c_e_x28_:
+1.0029999999999999 x31
+1.0029999999999999 x32
-0.99557499999999999 x33
-0.99557499999999999 x34
+1 x37
= 1000000

c_e_x29_:
+1 x38
= 1002203

c_e_x30_:
-0.98578999999999994 x35
-1.0001100000000001 x36
-1 x37
+1 x39
= 0

c_e_x40_:
-1 x45
+1 x47
+1 x49
= 0

c_e_x41_:
-1 x46
+1 x48
+1 x50
= 0

c_e_x42_:
+1.0029999999999999 x45
+1.0029999999999999 x46
-0.99557499999999999 x47
-0.99557499999999999 x48
+1 x51
= 1000000

c_e_x43_:
+1 x52
= 1002203

c_e_x44_:
-1.0105 x49
-0.99841000000000002 x50
-1 x51
+1 x53
= 0

c_e_x54_:
-1 x59
+1 x61
+1 x63
= 0

c_e_x55_:
-1 x60
+1 x62
+1 x64
= 0

c_e_x56_:
+1.0029999999999999 x59
+1.0029999999999999 x60
-0.99557499999999999 x61
-0.99557499999999999 x62
+1 x65
= 1000000

c_e_x57_:
+1 x66
= 1002203

c_e_x58_:
-1.0245500000000001 x63
-1.01024 x64
-1 x65
+1 x67
= 0

c_e_x68_:
-1 x73
+1 x75
+1 x77
= 0

c_e_x69_:
-1 x74
+1 x76
+1 x78
= 0

c_e_x70_:
+1.0029999999999999 x73
+1.0029999999999999 x74
-0.99557499999999999 x75
-0.99557499999999999 x76
+1 x79
= 1000000

c_e_x71_:
+1 x80
= 1002203

c_e_x72_:
-1.00213 x77
-1.0200400000000001 x78
-1 x79
+1 x81
= 0

c_e_x82_:
-1 x87
+1 x89
+1 x91
= 0

c_e_x83_:
-1 x88
+1 x90
+1 x92
= 0

c_e_x84_:
+1.0029999999999999 x87
+1.0029999999999999 x88
-0.99557499999999999 x89
-0.99557499999999999 x90
+1 x93
= 1000000

c_e_x85_:
+1 x94
= 1002203

c_e_x86_:
-0.99463999999999997 x91
-0.98873 x92
-1 x93
+1 x95
= 0

c_e_ONE_VAR_CONSTANT: 
ONE_VAR_CONSTANT = 1.0

bounds 
    -inf <= x22 <= +inf
    -inf <= x23 <= +inf
    -inf <= x24 <= +inf
    -inf <= x25 <= +inf
   0 <= x31 <= +inf
   0 <= x32 <= +inf
   0 <= x33 <= +inf
   0 <= x34 <= +inf
   0 <= x35 <= +inf
   0 <= x36 <= +inf
   0 <= x37 <= +inf
    -inf <= x38 <= +inf
    -inf <= x39 <= +inf
   0 <= x45 <= +inf
   0 <= x46 <= +inf
   0 <= x47 <= +inf
   0 <= x48 <= +inf
   0 <= x49 <= +inf
   0 <= x50 <= +inf
   0 <= x51 <= +inf
    -inf <= x52 <= +inf
    -inf <= x53 <= +inf
   0 <= x59 <= +inf
   0 <= x60 <= +inf
   0 <= x61 <= +inf
   0 <= x62 <= +inf
   0 <= x63 <= +inf
   0 <= x64 <= +inf
   0 <= x65 <= +inf
    -inf <= x66 <= +inf
    -inf <= x67 <= +inf
   0 <= x73 <= +inf
   0 <= x74 <= +inf
   0 <= x75 <= +inf
   0 <= x76 <= +inf
   0 <= x77 <= +inf
   0 <= x78 <= +inf
   0 <= x79 <= +inf
    -inf <= x80 <= +inf
    -inf <= x81 <= +inf
   0 <= x87 <= +inf
   0 <= x88 <= +inf
   0 <= x89 <= +inf
   0 <= x90 <= +inf
   0 <= x91 <= +inf
   0 <= x92 <= +inf
   0 <= x93 <= +inf
    -inf <= x94 <= +inf
    -inf <= x95 <= +inf
end 
